
  32    1
  10

   0   0   5 2 5 6 7 18 
   6   1   4 11 10 4 3 
   3   2   6 25 17 15 13 9 8 
  10   5   6 25 20 17 15 14 12 
  10   4   5 17 16 15 13 12 
   6   1   5 31 25 17 13 12 
   8   3   5 25 22 19 16 15 
   7   2   2 16 12 
   6   5   4 29 22 21 16 
   3   2   2 31 12 
   2   3   6 31 30 29 28 24 22 
  10   5   5 30 29 24 22 21 
   1   8   5 30 29 24 22 21 
   1   6   5 31 29 28 24 22 
   6   2   6 31 30 29 28 26 23 
   9   5   5 31 30 28 24 23 
  10   4   5 30 29 28 24 23 
   1   3   4 31 24 23 21 
   1   3   5 30 29 28 26 23 
   2   3   3 31 24 23 
   7   5   3 28 27 26 
   6   6   2 26 23 
   1   8   1 27 
   8   5   1 26 
   4   3   1 28 
   1   4   1 32
   5   4   1 32
   5   3   1 32
   6   6   1 32
   3   4   1 32
  10   5   1 32
   0   0   0 
